instances/knapsack/discrete/knapsack_150_18.lp
\ Model knapsack_150_18
\ LP format - for model browsing. Use MPS format to capture full model detail.
\ Signature: 0x1d3d114bfbe69093
Minimize
  - 55 x[0] - 55 x[1] - 57 x[2] - 89 x[3] - 26 x[4] - 62 x[5] - 38 x[6]
   - 76 x[7] - 83 x[8] - 79 x[9] - 80 x[10] - 48 x[11] - 52 x[12]
   - 91 x[13] - 92 x[14] - 17 x[15] - 39 x[16] - 47 x[17] - 51 x[18]
   - 66 x[19] - 10 x[20] - 64 x[21] - 49 x[22] - x[23] - 62 x[24]
   - 43 x[25] - 33 x[26] - 16 x[27] - 95 x[28] - 61 x[29] - 10 x[30]
   - 41 x[31] - 41 x[32] - 52 x[33] - 4 x[34] - 6 x[35] - 74 x[36]
   - 36 x[37] - 35 x[38] - 96 x[39] - 33 x[40] - 38 x[41] - 54 x[42]
   - 36 x[43] - 55 x[44] - 52 x[45] - 57 x[46] - 89 x[47] - 41 x[48]
   - 22 x[49] - 52 x[50] - 63 x[51] - 12 x[52] - 62 x[53] - 61 x[54]
   - 75 x[55] - 51 x[56] - 73 x[57] - 5 x[58] - 32 x[59] - 29 x[60]
   - 75 x[61] - 66 x[62] - 38 x[63] - 47 x[64] - 86 x[65] - 14 x[66]
   - 82 x[67] - 21 x[68] - 82 x[69] - 58 x[70] - 76 x[71] - 94 x[72]
   - 6 x[73] - 91 x[74] - 23 x[75] - 75 x[76] - 42 x[77] - 61 x[78]
   - 8 x[79] - 68 x[80] - 79 x[81] - 26 x[82] - 3 x[83] - 22 x[84]
   - 77 x[85] - 59 x[86] - 76 x[87] - 21 x[88] - 63 x[89] - 27 x[90]
   - 94 x[91] - 70 x[92] - 49 x[93] - 65 x[94] - 3 x[95] - 58 x[96]
   - 13 x[97] - 85 x[98] - 37 x[99] - 45 x[100] - 70 x[101] - 79 x[102]
   - 34 x[103] - 32 x[104] - 36 x[105] - 23 x[106] - 33 x[107] - 79 x[108]
   - 37 x[109] - 14 x[110] - 99 x[111] - 98 x[112] - 100 x[113] - 7 x[114]
   - 58 x[115] - 40 x[116] - 46 x[117] - 3 x[118] - 36 x[119] - 42 x[120]
   - 7 x[121] - 71 x[122] - 36 x[123] - 4 x[124] - 61 x[125] - 77 x[126]
   - 47 x[127] - 4 x[128] - 77 x[129] - 31 x[130] - 16 x[131] - 89 x[132]
   - 79 x[133] - 98 x[134] - 72 x[135] - 85 x[136] - 58 x[137] - 40 x[138]
   - 74 x[139] - 27 x[140] - 13 x[141] - 90 x[142] - 40 x[143] - 77 x[144]
   - 43 x[145] - 82 x[146] - 92 x[147] - 33 x[148] - 67 x[149]
Subject To
 primal_upper: 30 x[0] + 27 x[1] + 53 x[2] + 34 x[3] + 55 x[4] + 16 x[5]
   + 24 x[6] + 50 x[7] + 80 x[8] + 57 x[9] + 74 x[10] + 50 x[11] + 67 x[12]
   + 35 x[13] + 71 x[14] + 95 x[15] + 24 x[16] + 55 x[17] + 36 x[18]
   + 73 x[19] + 64 x[20] + 58 x[21] + 39 x[22] + 5 x[23] + 55 x[24]
   + 91 x[25] + 85 x[26] + 70 x[27] + 100 x[28] + 2 x[29] + 92 x[30]
   + 10 x[31] + 82 x[32] + 8 x[33] + 23 x[34] + 72 x[35] + 67 x[36]
   + 95 x[37] + 95 x[38] + 93 x[39] + 82 x[40] + 32 x[41] + x[42]
   + 100 x[43] + 26 x[44] + 9 x[45] + 60 x[46] + 56 x[47] + 30 x[48]
   + 47 x[49] + 33 x[50] + 47 x[51] + 100 x[52] + 27 x[53] + 43 x[54]
   + 78 x[55] + 52 x[56] + 61 x[57] + 47 x[58] + 41 x[59] + 75 x[60]
   + 93 x[61] + 94 x[62] + 73 x[63] + 6 x[64] + 3 x[65] + 15 x[66]
   + 21 x[67] + 43 x[68] + 16 x[69] + 16 x[70] + 80 x[71] + 89 x[72]
   + 66 x[73] + 70 x[74] + 51 x[75] + 61 x[76] + 22 x[77] + 19 x[78]
   + 33 x[79] + 8 x[80] + 64 x[81] + 49 x[82] + 100 x[83] + 40 x[84]
   + 36 x[85] + 34 x[86] + 51 x[87] + x[88] + 54 x[89] + 75 x[90]
   + 67 x[91] + 23 x[92] + 58 x[93] + 27 x[94] + 84 x[95] + 80 x[96]
   + 3 x[97] + 27 x[98] + 39 x[99] + 36 x[100] + 15 x[101] + 9 x[102]
   + 59 x[103] + 80 x[104] + 13 x[105] + 78 x[106] + 21 x[107] + 13 x[108]
   + 4 x[109] + 97 x[110] + 18 x[111] + 92 x[112] + 56 x[113] + 68 x[114]
   + 29 x[115] + 94 x[116] + 76 x[117] + 80 x[118] + 75 x[119] + 2 x[120]
   + 47 x[121] + 98 x[122] + 85 x[123] + 16 x[124] + 33 x[125] + 2 x[126]
   + 58 x[127] + 45 x[128] + 18 x[129] + 68 x[130] + 88 x[131] + 17 x[132]
   + 87 x[133] + 35 x[134] + 93 x[135] + 44 x[136] + x[137] + 52 x[138]
   + 47 x[139] + 42 x[140] + 91 x[141] + 94 x[142] + 94 x[143] + 56 x[144]
   + 21 x[145] + 93 x[146] + 66 x[147] + 15 x[148] + 93 x[149] + 3 r[0]
   + 2.7 r[1] + 5.3 r[2] + 3.4 r[3] + 5.5 r[4] + 1.6 r[5] + 2.4 r[6]
   + 5 r[7] + 8 r[8] + 5.7 r[9] + 7.4 r[10] + 5 r[11] + 6.7 r[12]
   + 3.5 r[13] + 7.1 r[14] + 9.5 r[15] + 2.4 r[16] + 5.5 r[17] + 3.6 r[18]
   + 7.3 r[19] + 6.4 r[20] + 5.8 r[21] + 3.9 r[22] + 0.5 r[23] + 5.5 r[24]
   + 9.1 r[25] + 8.5 r[26] + 7 r[27] + 10 r[28] + 0.2 r[29] + 9.2 r[30]
   + r[31] + 8.2 r[32] + 0.8 r[33] + 2.3 r[34] + 7.2 r[35] + 6.7 r[36]
   + 9.5 r[37] + 9.5 r[38] + 9.3 r[39] + 8.2 r[40] + 3.2 r[41] + 0.1 r[42]
   + 10 r[43] + 2.6 r[44] + 0.9 r[45] + 6 r[46] + 5.6 r[47] + 3 r[48]
   + 4.7 r[49] + 3.3 r[50] + 4.7 r[51] + 10 r[52] + 2.7 r[53] + 4.3 r[54]
   + 7.8 r[55] + 5.2 r[56] + 6.1 r[57] + 4.7 r[58] + 4.1 r[59] + 7.5 r[60]
   + 9.3 r[61] + 9.4 r[62] + 7.3 r[63] + 0.6 r[64] + 0.3 r[65] + 1.5 r[66]
   + 2.1 r[67] + 4.3 r[68] + 1.6 r[69] + 1.6 r[70] + 8 r[71] + 8.9 r[72]
   + 6.6 r[73] + 7 r[74] + 5.1 r[75] + 6.1 r[76] + 2.2 r[77] + 1.9 r[78]
   + 3.3 r[79] + 0.8 r[80] + 6.4 r[81] + 4.9 r[82] + 10 r[83] + 4 r[84]
   + 3.6 r[85] + 3.4 r[86] + 5.1 r[87] + 0.1 r[88] + 5.4 r[89] + 7.5 r[90]
   + 6.7 r[91] + 2.3 r[92] + 5.8 r[93] + 2.7 r[94] + 8.4 r[95] + 8 r[96]
   + 0.3 r[97] + 2.7 r[98] + 3.9 r[99] + 3.6 r[100] + 1.5 r[101]
   + 0.9 r[102] + 5.9 r[103] + 8 r[104] + 1.3 r[105] + 7.8 r[106]
   + 2.1 r[107] + 1.3 r[108] + 0.4 r[109] + 9.7 r[110] + 1.8 r[111]
   + 9.2 r[112] + 5.6 r[113] + 6.8 r[114] + 2.9 r[115] + 9.4 r[116]
   + 7.6 r[117] + 8 r[118] + 7.5 r[119] + 0.2 r[120] + 4.7 r[121]
   + 9.8 r[122] + 8.5 r[123] + 1.6 r[124] + 3.3 r[125] + 0.2 r[126]
   + 5.8 r[127] + 4.5 r[128] + 1.8 r[129] + 6.8 r[130] + 8.8 r[131]
   + 1.7 r[132] + 8.7 r[133] + 3.5 r[134] + 9.3 r[135] + 4.4 r[136]
   + 0.1 r[137] + 5.2 r[138] + 4.7 r[139] + 4.2 r[140] + 9.1 r[141]
   + 9.4 r[142] + 9.4 r[143] + 5.6 r[144] + 2.1 r[145] + 9.3 r[146]
   + 6.6 r[147] + 1.5 r[148] + 9.3 r[149] <= 729
 primal_lower: 4.833272839058654 x[0] + 1.62363191402329 x[1]
   + 1.00337388888488 x[2] + 4.115010342025372 x[3]
   + 3.585836332178128 x[4] + 1.955976814470753 x[5]
   + 0.00377205814360835 x[6] + 0.6790198865159293 x[7]
   + 3.859850890148544 x[8] + 1.721141855097897 x[9]
   + 3.655078181475994 x[10] + 0.8022666136512152 x[11]
   + 2.277804587149975 x[12] + 2.573765172630856 x[13]
   + 4.437932218960214 x[14] + 0.0120853327277071 x[15]
   + 4.198254047595115 x[16] + 4.405303825565531 x[17]
   + 1.49125469727718 x[18] + 1.428419797561907 x[19]
   + 2.485139555777018 x[20] + 1.35855893798873 x[21]
   + 3.372521279008484 x[22] + 2.267024374259308 x[23]
   + 0.2729724574332149 x[24] + 2.149068074218947 x[25]
   + 3.655287030921484 x[26] + 3.95350009160784 x[27]
   + 0.4602329790446297 x[28] + 2.966455209426289 x[29]
   + 2.542399851024544 x[30] + 3.23861116942177 x[31]
   + 0.9076170776481464 x[32] + 2.571809345505518 x[33]
   + 2.749567102998302 x[34] + 4.85201363540294 x[35]
   + 1.872865752113077 x[36] + 1.035498935749896 x[37]
   + 1.612740308250911 x[38] + 2.920188509796925 x[39]
   + 1.152143143502896 x[40] + 4.553027315973142 x[41]
   + 0.5771415674722187 x[42] + 2.516669652684903 x[43]
   + 3.609719988312855 x[44] + 4.276175830816726 x[45]
   + 0.7328655166560536 x[46] + 3.763506440177477 x[47]
   + 4.745980165573602 x[48] + 4.160183096576932 x[49]
   + 1.308620700437003 x[50] + 4.375627384479358 x[51]
   + 3.379457989421349 x[52] + 1.994243824038906 x[53]
   + 3.311719330870444 x[54] + 2.899323045752054 x[55]
   + 4.666362582879366 x[56] + 0.8216259885586165 x[57]
   + 2.389409909009212 x[58] + 2.725293104363624 x[59]
   + 3.594280482983857 x[60] + 1.909853369318452 x[61]
   + 3.432223403534037 x[62] + 3.432042221708204 x[63]
   + 2.241335449850157 x[64] + 4.243444469469837 x[65]
   + 3.970101313599092 x[66] + 2.420907113656441 x[67]
   + 0.6058331822529212 x[68] + 1.08172989981325 x[69]
   + 3.859336033725992 x[70] + 3.827164570814159 x[71]
   + 1.983835917175954 x[72] + 1.749728452540449 x[73]
   + 1.255590540000201 x[74] + 1.148253468574376 x[75]
   + 2.477894014466612 x[76] + 1.061179411868588 x[77]
   + 3.39100902131782 x[78] + 2.313305299434373 x[79]
   + 0.4275031841309252 x[80] + 0.5680770020245679 x[81]
   + 2.445959596981712 x[82] + 3.117456815298324 x[83]
   + 4.097755726314298 x[84] + 1.637290403203722 x[85]
   + 3.213243582607766 x[86] + 1.832942541643243 x[87]
   + 0.8996784063633849 x[88] + 3.798375881724551 x[89]
   + 3.943735782494493 x[90] + 4.717122366317405 x[91]
   + 0.7522174105246101 x[92] + 3.561639132851234 x[93]
   + 0.1628793417820598 x[94] + 2.318593732306923 x[95]
   + 1.894533227927621 x[96] + 0.0922925826823231 x[97]
   + 4.115452678356299 x[98] + 4.013427559734155 x[99]
   + 2.192671214842201 x[100] + 3.798802937646498 x[101]
   + 0.6311850293527871 x[102] + 3.990325078132612 x[103]
   + 2.461134795621365 x[104] + 3.166388515128328 x[105]
   + 2.380040312716783 x[106] + 4.19803114523963 x[107]
   + 0.8259054275530111 x[108] + 4.641333644585774 x[109]
   + 1.45936162690465 x[110] + 2.669443943556379 x[111]
   + 3.688268968759821 x[112] + 1.435352736268813 x[113]
   + 0.2930441255680589 x[114] + 1.243625045234357 x[115]
   + 3.666147048481163 x[116] + 1.416453731058397 x[117]
   + 3.15523398630899 x[118] + 2.661133789533515 x[119]
   + 2.537011349121313 x[120] + 1.87533455817434 x[121]
   + 2.598847671227426 x[122] + 2.10479112223304 x[123]
   + 4.87355326930471 x[124] + 0.5137999887944819 x[125]
   + 3.782759800689512 x[126] + 3.932431667738092 x[127]
   + 4.048883735618348 x[128] + 3.518228961075491 x[129]
   + 0.8440173194288005 x[130] + 0.9352560124365378 x[131]
   + 0.7970291397185771 x[132] + 4.691393950397016 x[133]
   + 1.577673155928819 x[134] + 4.798846331518744 x[135]
   + 2.216096869027476 x[136] + 2.752951405198519 x[137]
   + 2.930361655836591 x[138] + 1.571045716640165 x[139]
   + 0.589159253300136 x[140] + 2.130182435994783 x[141]
   + 3.357959202830947 x[142] + 1.15581356975116 x[143]
   + 4.747815246312336 x[144] + 0.9804349015725027 x[145]
   + 3.392392511248422 x[146] + 0.0954295281541642 x[147]
   + 4.168021366092781 x[148] + 0.9620054158968231 x[149] + 81 u[0]
   + 82 u[1] + 84 u[2] + 77 u[3] + 6 u[4] + 79 u[5] + 95 u[6] + 13 u[7]
   + 91 u[8] + 12 u[9] + 33 u[10] + 85 u[11] + 42 u[12] + 90 u[13]
   + 70 u[14] + 94 u[15] + 67 u[16] + 2 u[17] + 55 u[18] + 84 u[19]
   + 23 u[20] + 81 u[21] + 78 u[22] + 68 u[23] + 2 u[24] + 66 u[25]
   + 68 u[26] + 49 u[27] + 11 u[28] + 93 u[29] + 63 u[30] + 73 u[31]
   + 5 u[32] + 43 u[33] + 98 u[34] + 99 u[35] + 82 u[36] + 74 u[37]
   + 90 u[38] + 4 u[39] + 25 u[40] + 71 u[41] + 32 u[42] + 83 u[43]
   + 33 u[44] + 76 u[45] + 91 u[46] + 55 u[47] + 73 u[48] + 26 u[49]
   + 52 u[50] + 98 u[51] + 15 u[52] + 90 u[53] + 62 u[54] + 57 u[55]
   + 59 u[56] + 24 u[57] + 86 u[58] + 84 u[59] + 14 u[60] + 88 u[61]
   + 73 u[62] + 64 u[63] + 77 u[64] + 58 u[65] + 2 u[66] + 20 u[67]
   + 46 u[68] + 91 u[69] + 7 u[70] + 7 u[71] + 12 u[72] + 93 u[73]
   + 97 u[74] + 38 u[75] + 36 u[76] + 81 u[77] + 14 u[78] + 4 u[79]
   + 11 u[80] + 3 u[81] + 72 u[82] + 3 u[83] + 71 u[84] + 23 u[85]
   + 45 u[86] + 50 u[87] + 4 u[88] + 25 u[89] + 10 u[90] + 70 u[91]
   + 70 u[92] + 45 u[93] + 46 u[94] + 75 u[95] + 71 u[96] + 86 u[97]
   + 90 u[98] + 14 u[99] + 7 u[100] + 6 u[101] + 16 u[102] + 50 u[103]
   + 55 u[104] + 52 u[105] + 53 u[106] + 88 u[107] + 64 u[108] + 79 u[109]
   + 28 u[110] + 25 u[111] + 23 u[112] + 79 u[113] + 39 u[114] + 40 u[115]
   + 49 u[116] + 39 u[117] + 79 u[118] + 2 u[119] + 85 u[120] + 34 u[121]
   + 5 u[122] + 68 u[123] + 43 u[124] + 4 u[125] + u[126] + 9 u[127]
   + 64 u[128] + 37 u[129] + 79 u[130] + 39 u[131] + 56 u[132] + 46 u[133]
   + 82 u[134] + 56 u[135] + 7 u[136] + 100 u[137] + 59 u[138] + 34 u[139]
   + 17 u[140] + 6 u[141] + 21 u[142] + 93 u[143] + 23 u[144] + 100 u[145]
   + 16 u[146] + 69 u[147] + 74 u[148] + 92 u[149] <= 52801
 mccormick1[0]: - u[0] + r[0] <= 0
 mccormick1[1]: - u[1] + r[1] <= 0
 mccormick1[2]: - u[2] + r[2] <= 0
 mccormick1[3]: - u[3] + r[3] <= 0
 mccormick1[4]: - u[4] + r[4] <= 0
 mccormick1[5]: - u[5] + r[5] <= 0
 mccormick1[6]: - u[6] + r[6] <= 0
 mccormick1[7]: - u[7] + r[7] <= 0
 mccormick1[8]: - u[8] + r[8] <= 0
 mccormick1[9]: - u[9] + r[9] <= 0
 mccormick1[10]: - u[10] + r[10] <= 0
 mccormick1[11]: - u[11] + r[11] <= 0
 mccormick1[12]: - u[12] + r[12] <= 0
 mccormick1[13]: - u[13] + r[13] <= 0
 mccormick1[14]: - u[14] + r[14] <= 0
 mccormick1[15]: - u[15] + r[15] <= 0
 mccormick1[16]: - u[16] + r[16] <= 0
 mccormick1[17]: - u[17] + r[17] <= 0
 mccormick1[18]: - u[18] + r[18] <= 0
 mccormick1[19]: - u[19] + r[19] <= 0
 mccormick1[20]: - u[20] + r[20] <= 0
 mccormick1[21]: - u[21] + r[21] <= 0
 mccormick1[22]: - u[22] + r[22] <= 0
 mccormick1[23]: - u[23] + r[23] <= 0
 mccormick1[24]: - u[24] + r[24] <= 0
 mccormick1[25]: - u[25] + r[25] <= 0
 mccormick1[26]: - u[26] + r[26] <= 0
 mccormick1[27]: - u[27] + r[27] <= 0
 mccormick1[28]: - u[28] + r[28] <= 0
 mccormick1[29]: - u[29] + r[29] <= 0
 mccormick1[30]: - u[30] + r[30] <= 0
 mccormick1[31]: - u[31] + r[31] <= 0
 mccormick1[32]: - u[32] + r[32] <= 0
 mccormick1[33]: - u[33] + r[33] <= 0
 mccormick1[34]: - u[34] + r[34] <= 0
 mccormick1[35]: - u[35] + r[35] <= 0
 mccormick1[36]: - u[36] + r[36] <= 0
 mccormick1[37]: - u[37] + r[37] <= 0
 mccormick1[38]: - u[38] + r[38] <= 0
 mccormick1[39]: - u[39] + r[39] <= 0
 mccormick1[40]: - u[40] + r[40] <= 0
 mccormick1[41]: - u[41] + r[41] <= 0
 mccormick1[42]: - u[42] + r[42] <= 0
 mccormick1[43]: - u[43] + r[43] <= 0
 mccormick1[44]: - u[44] + r[44] <= 0
 mccormick1[45]: - u[45] + r[45] <= 0
 mccormick1[46]: - u[46] + r[46] <= 0
 mccormick1[47]: - u[47] + r[47] <= 0
 mccormick1[48]: - u[48] + r[48] <= 0
 mccormick1[49]: - u[49] + r[49] <= 0
 mccormick1[50]: - u[50] + r[50] <= 0
 mccormick1[51]: - u[51] + r[51] <= 0
 mccormick1[52]: - u[52] + r[52] <= 0
 mccormick1[53]: - u[53] + r[53] <= 0
 mccormick1[54]: - u[54] + r[54] <= 0
 mccormick1[55]: - u[55] + r[55] <= 0
 mccormick1[56]: - u[56] + r[56] <= 0
 mccormick1[57]: - u[57] + r[57] <= 0
 mccormick1[58]: - u[58] + r[58] <= 0
 mccormick1[59]: - u[59] + r[59] <= 0
 mccormick1[60]: - u[60] + r[60] <= 0
 mccormick1[61]: - u[61] + r[61] <= 0
 mccormick1[62]: - u[62] + r[62] <= 0
 mccormick1[63]: - u[63] + r[63] <= 0
 mccormick1[64]: - u[64] + r[64] <= 0
 mccormick1[65]: - u[65] + r[65] <= 0
 mccormick1[66]: - u[66] + r[66] <= 0
 mccormick1[67]: - u[67] + r[67] <= 0
 mccormick1[68]: - u[68] + r[68] <= 0
 mccormick1[69]: - u[69] + r[69] <= 0
 mccormick1[70]: - u[70] + r[70] <= 0
 mccormick1[71]: - u[71] + r[71] <= 0
 mccormick1[72]: - u[72] + r[72] <= 0
 mccormick1[73]: - u[73] + r[73] <= 0
 mccormick1[74]: - u[74] + r[74] <= 0
 mccormick1[75]: - u[75] + r[75] <= 0
 mccormick1[76]: - u[76] + r[76] <= 0
 mccormick1[77]: - u[77] + r[77] <= 0
 mccormick1[78]: - u[78] + r[78] <= 0
 mccormick1[79]: - u[79] + r[79] <= 0
 mccormick1[80]: - u[80] + r[80] <= 0
 mccormick1[81]: - u[81] + r[81] <= 0
 mccormick1[82]: - u[82] + r[82] <= 0
 mccormick1[83]: - u[83] + r[83] <= 0
 mccormick1[84]: - u[84] + r[84] <= 0
 mccormick1[85]: - u[85] + r[85] <= 0
 mccormick1[86]: - u[86] + r[86] <= 0
 mccormick1[87]: - u[87] + r[87] <= 0
 mccormick1[88]: - u[88] + r[88] <= 0
 mccormick1[89]: - u[89] + r[89] <= 0
 mccormick1[90]: - u[90] + r[90] <= 0
 mccormick1[91]: - u[91] + r[91] <= 0
 mccormick1[92]: - u[92] + r[92] <= 0
 mccormick1[93]: - u[93] + r[93] <= 0
 mccormick1[94]: - u[94] + r[94] <= 0
 mccormick1[95]: - u[95] + r[95] <= 0
 mccormick1[96]: - u[96] + r[96] <= 0
 mccormick1[97]: - u[97] + r[97] <= 0
 mccormick1[98]: - u[98] + r[98] <= 0
 mccormick1[99]: - u[99] + r[99] <= 0
 mccormick1[100]: - u[100] + r[100] <= 0
 mccormick1[101]: - u[101] + r[101] <= 0
 mccormick1[102]: - u[102] + r[102] <= 0
 mccormick1[103]: - u[103] + r[103] <= 0
 mccormick1[104]: - u[104] + r[104] <= 0
 mccormick1[105]: - u[105] + r[105] <= 0
 mccormick1[106]: - u[106] + r[106] <= 0
 mccormick1[107]: - u[107] + r[107] <= 0
 mccormick1[108]: - u[108] + r[108] <= 0
 mccormick1[109]: - u[109] + r[109] <= 0
 mccormick1[110]: - u[110] + r[110] <= 0
 mccormick1[111]: - u[111] + r[111] <= 0
 mccormick1[112]: - u[112] + r[112] <= 0
 mccormick1[113]: - u[113] + r[113] <= 0
 mccormick1[114]: - u[114] + r[114] <= 0
 mccormick1[115]: - u[115] + r[115] <= 0
 mccormick1[116]: - u[116] + r[116] <= 0
 mccormick1[117]: - u[117] + r[117] <= 0
 mccormick1[118]: - u[118] + r[118] <= 0
 mccormick1[119]: - u[119] + r[119] <= 0
 mccormick1[120]: - u[120] + r[120] <= 0
 mccormick1[121]: - u[121] + r[121] <= 0
 mccormick1[122]: - u[122] + r[122] <= 0
 mccormick1[123]: - u[123] + r[123] <= 0
 mccormick1[124]: - u[124] + r[124] <= 0
 mccormick1[125]: - u[125] + r[125] <= 0
 mccormick1[126]: - u[126] + r[126] <= 0
 mccormick1[127]: - u[127] + r[127] <= 0
 mccormick1[128]: - u[128] + r[128] <= 0
 mccormick1[129]: - u[129] + r[129] <= 0
 mccormick1[130]: - u[130] + r[130] <= 0
 mccormick1[131]: - u[131] + r[131] <= 0
 mccormick1[132]: - u[132] + r[132] <= 0
 mccormick1[133]: - u[133] + r[133] <= 0
 mccormick1[134]: - u[134] + r[134] <= 0
 mccormick1[135]: - u[135] + r[135] <= 0
 mccormick1[136]: - u[136] + r[136] <= 0
 mccormick1[137]: - u[137] + r[137] <= 0
 mccormick1[138]: - u[138] + r[138] <= 0
 mccormick1[139]: - u[139] + r[139] <= 0
 mccormick1[140]: - u[140] + r[140] <= 0
 mccormick1[141]: - u[141] + r[141] <= 0
 mccormick1[142]: - u[142] + r[142] <= 0
 mccormick1[143]: - u[143] + r[143] <= 0
 mccormick1[144]: - u[144] + r[144] <= 0
 mccormick1[145]: - u[145] + r[145] <= 0
 mccormick1[146]: - u[146] + r[146] <= 0
 mccormick1[147]: - u[147] + r[147] <= 0
 mccormick1[148]: - u[148] + r[148] <= 0
 mccormick1[149]: - u[149] + r[149] <= 0
 mccormick2[0]: - x[0] + r[0] <= 0
 mccormick2[1]: - x[1] + r[1] <= 0
 mccormick2[2]: - x[2] + r[2] <= 0
 mccormick2[3]: - x[3] + r[3] <= 0
 mccormick2[4]: - x[4] + r[4] <= 0
 mccormick2[5]: - x[5] + r[5] <= 0
 mccormick2[6]: - x[6] + r[6] <= 0
 mccormick2[7]: - x[7] + r[7] <= 0
 mccormick2[8]: - x[8] + r[8] <= 0
 mccormick2[9]: - x[9] + r[9] <= 0
 mccormick2[10]: - x[10] + r[10] <= 0
 mccormick2[11]: - x[11] + r[11] <= 0
 mccormick2[12]: - x[12] + r[12] <= 0
 mccormick2[13]: - x[13] + r[13] <= 0
 mccormick2[14]: - x[14] + r[14] <= 0
 mccormick2[15]: - x[15] + r[15] <= 0
 mccormick2[16]: - x[16] + r[16] <= 0
 mccormick2[17]: - x[17] + r[17] <= 0
 mccormick2[18]: - x[18] + r[18] <= 0
 mccormick2[19]: - x[19] + r[19] <= 0
 mccormick2[20]: - x[20] + r[20] <= 0
 mccormick2[21]: - x[21] + r[21] <= 0
 mccormick2[22]: - x[22] + r[22] <= 0
 mccormick2[23]: - x[23] + r[23] <= 0
 mccormick2[24]: - x[24] + r[24] <= 0
 mccormick2[25]: - x[25] + r[25] <= 0
 mccormick2[26]: - x[26] + r[26] <= 0
 mccormick2[27]: - x[27] + r[27] <= 0
 mccormick2[28]: - x[28] + r[28] <= 0
 mccormick2[29]: - x[29] + r[29] <= 0
 mccormick2[30]: - x[30] + r[30] <= 0
 mccormick2[31]: - x[31] + r[31] <= 0
 mccormick2[32]: - x[32] + r[32] <= 0
 mccormick2[33]: - x[33] + r[33] <= 0
 mccormick2[34]: - x[34] + r[34] <= 0
 mccormick2[35]: - x[35] + r[35] <= 0
 mccormick2[36]: - x[36] + r[36] <= 0
 mccormick2[37]: - x[37] + r[37] <= 0
 mccormick2[38]: - x[38] + r[38] <= 0
 mccormick2[39]: - x[39] + r[39] <= 0
 mccormick2[40]: - x[40] + r[40] <= 0
 mccormick2[41]: - x[41] + r[41] <= 0
 mccormick2[42]: - x[42] + r[42] <= 0
 mccormick2[43]: - x[43] + r[43] <= 0
 mccormick2[44]: - x[44] + r[44] <= 0
 mccormick2[45]: - x[45] + r[45] <= 0
 mccormick2[46]: - x[46] + r[46] <= 0
 mccormick2[47]: - x[47] + r[47] <= 0
 mccormick2[48]: - x[48] + r[48] <= 0
 mccormick2[49]: - x[49] + r[49] <= 0
 mccormick2[50]: - x[50] + r[50] <= 0
 mccormick2[51]: - x[51] + r[51] <= 0
 mccormick2[52]: - x[52] + r[52] <= 0
 mccormick2[53]: - x[53] + r[53] <= 0
 mccormick2[54]: - x[54] + r[54] <= 0
 mccormick2[55]: - x[55] + r[55] <= 0
 mccormick2[56]: - x[56] + r[56] <= 0
 mccormick2[57]: - x[57] + r[57] <= 0
 mccormick2[58]: - x[58] + r[58] <= 0
 mccormick2[59]: - x[59] + r[59] <= 0
 mccormick2[60]: - x[60] + r[60] <= 0
 mccormick2[61]: - x[61] + r[61] <= 0
 mccormick2[62]: - x[62] + r[62] <= 0
 mccormick2[63]: - x[63] + r[63] <= 0
 mccormick2[64]: - x[64] + r[64] <= 0
 mccormick2[65]: - x[65] + r[65] <= 0
 mccormick2[66]: - x[66] + r[66] <= 0
 mccormick2[67]: - x[67] + r[67] <= 0
 mccormick2[68]: - x[68] + r[68] <= 0
 mccormick2[69]: - x[69] + r[69] <= 0
 mccormick2[70]: - x[70] + r[70] <= 0
 mccormick2[71]: - x[71] + r[71] <= 0
 mccormick2[72]: - x[72] + r[72] <= 0
 mccormick2[73]: - x[73] + r[73] <= 0
 mccormick2[74]: - x[74] + r[74] <= 0
 mccormick2[75]: - x[75] + r[75] <= 0
 mccormick2[76]: - x[76] + r[76] <= 0
 mccormick2[77]: - x[77] + r[77] <= 0
 mccormick2[78]: - x[78] + r[78] <= 0
 mccormick2[79]: - x[79] + r[79] <= 0
 mccormick2[80]: - x[80] + r[80] <= 0
 mccormick2[81]: - x[81] + r[81] <= 0
 mccormick2[82]: - x[82] + r[82] <= 0
 mccormick2[83]: - x[83] + r[83] <= 0
 mccormick2[84]: - x[84] + r[84] <= 0
 mccormick2[85]: - x[85] + r[85] <= 0
 mccormick2[86]: - x[86] + r[86] <= 0
 mccormick2[87]: - x[87] + r[87] <= 0
 mccormick2[88]: - x[88] + r[88] <= 0
 mccormick2[89]: - x[89] + r[89] <= 0
 mccormick2[90]: - x[90] + r[90] <= 0
 mccormick2[91]: - x[91] + r[91] <= 0
 mccormick2[92]: - x[92] + r[92] <= 0
 mccormick2[93]: - x[93] + r[93] <= 0
 mccormick2[94]: - x[94] + r[94] <= 0
 mccormick2[95]: - x[95] + r[95] <= 0
 mccormick2[96]: - x[96] + r[96] <= 0
 mccormick2[97]: - x[97] + r[97] <= 0
 mccormick2[98]: - x[98] + r[98] <= 0
 mccormick2[99]: - x[99] + r[99] <= 0
 mccormick2[100]: - x[100] + r[100] <= 0
 mccormick2[101]: - x[101] + r[101] <= 0
 mccormick2[102]: - x[102] + r[102] <= 0
 mccormick2[103]: - x[103] + r[103] <= 0
 mccormick2[104]: - x[104] + r[104] <= 0
 mccormick2[105]: - x[105] + r[105] <= 0
 mccormick2[106]: - x[106] + r[106] <= 0
 mccormick2[107]: - x[107] + r[107] <= 0
 mccormick2[108]: - x[108] + r[108] <= 0
 mccormick2[109]: - x[109] + r[109] <= 0
 mccormick2[110]: - x[110] + r[110] <= 0
 mccormick2[111]: - x[111] + r[111] <= 0
 mccormick2[112]: - x[112] + r[112] <= 0
 mccormick2[113]: - x[113] + r[113] <= 0
 mccormick2[114]: - x[114] + r[114] <= 0
 mccormick2[115]: - x[115] + r[115] <= 0
 mccormick2[116]: - x[116] + r[116] <= 0
 mccormick2[117]: - x[117] + r[117] <= 0
 mccormick2[118]: - x[118] + r[118] <= 0
 mccormick2[119]: - x[119] + r[119] <= 0
 mccormick2[120]: - x[120] + r[120] <= 0
 mccormick2[121]: - x[121] + r[121] <= 0
 mccormick2[122]: - x[122] + r[122] <= 0
 mccormick2[123]: - x[123] + r[123] <= 0
 mccormick2[124]: - x[124] + r[124] <= 0
 mccormick2[125]: - x[125] + r[125] <= 0
 mccormick2[126]: - x[126] + r[126] <= 0
 mccormick2[127]: - x[127] + r[127] <= 0
 mccormick2[128]: - x[128] + r[128] <= 0
 mccormick2[129]: - x[129] + r[129] <= 0
 mccormick2[130]: - x[130] + r[130] <= 0
 mccormick2[131]: - x[131] + r[131] <= 0
 mccormick2[132]: - x[132] + r[132] <= 0
 mccormick2[133]: - x[133] + r[133] <= 0
 mccormick2[134]: - x[134] + r[134] <= 0
 mccormick2[135]: - x[135] + r[135] <= 0
 mccormick2[136]: - x[136] + r[136] <= 0
 mccormick2[137]: - x[137] + r[137] <= 0
 mccormick2[138]: - x[138] + r[138] <= 0
 mccormick2[139]: - x[139] + r[139] <= 0
 mccormick2[140]: - x[140] + r[140] <= 0
 mccormick2[141]: - x[141] + r[141] <= 0
 mccormick2[142]: - x[142] + r[142] <= 0
 mccormick2[143]: - x[143] + r[143] <= 0
 mccormick2[144]: - x[144] + r[144] <= 0
 mccormick2[145]: - x[145] + r[145] <= 0
 mccormick2[146]: - x[146] + r[146] <= 0
 mccormick2[147]: - x[147] + r[147] <= 0
 mccormick2[148]: - x[148] + r[148] <= 0
 mccormick2[149]: - x[149] + r[149] <= 0
 mccormick3[0]: x[0] + u[0] - r[0] <= 1
 mccormick3[1]: x[1] + u[1] - r[1] <= 1
 mccormick3[2]: x[2] + u[2] - r[2] <= 1
 mccormick3[3]: x[3] + u[3] - r[3] <= 1
 mccormick3[4]: x[4] + u[4] - r[4] <= 1
 mccormick3[5]: x[5] + u[5] - r[5] <= 1
 mccormick3[6]: x[6] + u[6] - r[6] <= 1
 mccormick3[7]: x[7] + u[7] - r[7] <= 1
 mccormick3[8]: x[8] + u[8] - r[8] <= 1
 mccormick3[9]: x[9] + u[9] - r[9] <= 1
 mccormick3[10]: x[10] + u[10] - r[10] <= 1
 mccormick3[11]: x[11] + u[11] - r[11] <= 1
 mccormick3[12]: x[12] + u[12] - r[12] <= 1
 mccormick3[13]: x[13] + u[13] - r[13] <= 1
 mccormick3[14]: x[14] + u[14] - r[14] <= 1
 mccormick3[15]: x[15] + u[15] - r[15] <= 1
 mccormick3[16]: x[16] + u[16] - r[16] <= 1
 mccormick3[17]: x[17] + u[17] - r[17] <= 1
 mccormick3[18]: x[18] + u[18] - r[18] <= 1
 mccormick3[19]: x[19] + u[19] - r[19] <= 1
 mccormick3[20]: x[20] + u[20] - r[20] <= 1
 mccormick3[21]: x[21] + u[21] - r[21] <= 1
 mccormick3[22]: x[22] + u[22] - r[22] <= 1
 mccormick3[23]: x[23] + u[23] - r[23] <= 1
 mccormick3[24]: x[24] + u[24] - r[24] <= 1
 mccormick3[25]: x[25] + u[25] - r[25] <= 1
 mccormick3[26]: x[26] + u[26] - r[26] <= 1
 mccormick3[27]: x[27] + u[27] - r[27] <= 1
 mccormick3[28]: x[28] + u[28] - r[28] <= 1
 mccormick3[29]: x[29] + u[29] - r[29] <= 1
 mccormick3[30]: x[30] + u[30] - r[30] <= 1
 mccormick3[31]: x[31] + u[31] - r[31] <= 1
 mccormick3[32]: x[32] + u[32] - r[32] <= 1
 mccormick3[33]: x[33] + u[33] - r[33] <= 1
 mccormick3[34]: x[34] + u[34] - r[34] <= 1
 mccormick3[35]: x[35] + u[35] - r[35] <= 1
 mccormick3[36]: x[36] + u[36] - r[36] <= 1
 mccormick3[37]: x[37] + u[37] - r[37] <= 1
 mccormick3[38]: x[38] + u[38] - r[38] <= 1
 mccormick3[39]: x[39] + u[39] - r[39] <= 1
 mccormick3[40]: x[40] + u[40] - r[40] <= 1
 mccormick3[41]: x[41] + u[41] - r[41] <= 1
 mccormick3[42]: x[42] + u[42] - r[42] <= 1
 mccormick3[43]: x[43] + u[43] - r[43] <= 1
 mccormick3[44]: x[44] + u[44] - r[44] <= 1
 mccormick3[45]: x[45] + u[45] - r[45] <= 1
 mccormick3[46]: x[46] + u[46] - r[46] <= 1
 mccormick3[47]: x[47] + u[47] - r[47] <= 1
 mccormick3[48]: x[48] + u[48] - r[48] <= 1
 mccormick3[49]: x[49] + u[49] - r[49] <= 1
 mccormick3[50]: x[50] + u[50] - r[50] <= 1
 mccormick3[51]: x[51] + u[51] - r[51] <= 1
 mccormick3[52]: x[52] + u[52] - r[52] <= 1
 mccormick3[53]: x[53] + u[53] - r[53] <= 1
 mccormick3[54]: x[54] + u[54] - r[54] <= 1
 mccormick3[55]: x[55] + u[55] - r[55] <= 1
 mccormick3[56]: x[56] + u[56] - r[56] <= 1
 mccormick3[57]: x[57] + u[57] - r[57] <= 1
 mccormick3[58]: x[58] + u[58] - r[58] <= 1
 mccormick3[59]: x[59] + u[59] - r[59] <= 1
 mccormick3[60]: x[60] + u[60] - r[60] <= 1
 mccormick3[61]: x[61] + u[61] - r[61] <= 1
 mccormick3[62]: x[62] + u[62] - r[62] <= 1
 mccormick3[63]: x[63] + u[63] - r[63] <= 1
 mccormick3[64]: x[64] + u[64] - r[64] <= 1
 mccormick3[65]: x[65] + u[65] - r[65] <= 1
 mccormick3[66]: x[66] + u[66] - r[66] <= 1
 mccormick3[67]: x[67] + u[67] - r[67] <= 1
 mccormick3[68]: x[68] + u[68] - r[68] <= 1
 mccormick3[69]: x[69] + u[69] - r[69] <= 1
 mccormick3[70]: x[70] + u[70] - r[70] <= 1
 mccormick3[71]: x[71] + u[71] - r[71] <= 1
 mccormick3[72]: x[72] + u[72] - r[72] <= 1
 mccormick3[73]: x[73] + u[73] - r[73] <= 1
 mccormick3[74]: x[74] + u[74] - r[74] <= 1
 mccormick3[75]: x[75] + u[75] - r[75] <= 1
 mccormick3[76]: x[76] + u[76] - r[76] <= 1
 mccormick3[77]: x[77] + u[77] - r[77] <= 1
 mccormick3[78]: x[78] + u[78] - r[78] <= 1
 mccormick3[79]: x[79] + u[79] - r[79] <= 1
 mccormick3[80]: x[80] + u[80] - r[80] <= 1
 mccormick3[81]: x[81] + u[81] - r[81] <= 1
 mccormick3[82]: x[82] + u[82] - r[82] <= 1
 mccormick3[83]: x[83] + u[83] - r[83] <= 1
 mccormick3[84]: x[84] + u[84] - r[84] <= 1
 mccormick3[85]: x[85] + u[85] - r[85] <= 1
 mccormick3[86]: x[86] + u[86] - r[86] <= 1
 mccormick3[87]: x[87] + u[87] - r[87] <= 1
 mccormick3[88]: x[88] + u[88] - r[88] <= 1
 mccormick3[89]: x[89] + u[89] - r[89] <= 1
 mccormick3[90]: x[90] + u[90] - r[90] <= 1
 mccormick3[91]: x[91] + u[91] - r[91] <= 1
 mccormick3[92]: x[92] + u[92] - r[92] <= 1
 mccormick3[93]: x[93] + u[93] - r[93] <= 1
 mccormick3[94]: x[94] + u[94] - r[94] <= 1
 mccormick3[95]: x[95] + u[95] - r[95] <= 1
 mccormick3[96]: x[96] + u[96] - r[96] <= 1
 mccormick3[97]: x[97] + u[97] - r[97] <= 1
 mccormick3[98]: x[98] + u[98] - r[98] <= 1
 mccormick3[99]: x[99] + u[99] - r[99] <= 1
 mccormick3[100]: x[100] + u[100] - r[100] <= 1
 mccormick3[101]: x[101] + u[101] - r[101] <= 1
 mccormick3[102]: x[102] + u[102] - r[102] <= 1
 mccormick3[103]: x[103] + u[103] - r[103] <= 1
 mccormick3[104]: x[104] + u[104] - r[104] <= 1
 mccormick3[105]: x[105] + u[105] - r[105] <= 1
 mccormick3[106]: x[106] + u[106] - r[106] <= 1
 mccormick3[107]: x[107] + u[107] - r[107] <= 1
 mccormick3[108]: x[108] + u[108] - r[108] <= 1
 mccormick3[109]: x[109] + u[109] - r[109] <= 1
 mccormick3[110]: x[110] + u[110] - r[110] <= 1
 mccormick3[111]: x[111] + u[111] - r[111] <= 1
 mccormick3[112]: x[112] + u[112] - r[112] <= 1
 mccormick3[113]: x[113] + u[113] - r[113] <= 1
 mccormick3[114]: x[114] + u[114] - r[114] <= 1
 mccormick3[115]: x[115] + u[115] - r[115] <= 1
 mccormick3[116]: x[116] + u[116] - r[116] <= 1
 mccormick3[117]: x[117] + u[117] - r[117] <= 1
 mccormick3[118]: x[118] + u[118] - r[118] <= 1
 mccormick3[119]: x[119] + u[119] - r[119] <= 1
 mccormick3[120]: x[120] + u[120] - r[120] <= 1
 mccormick3[121]: x[121] + u[121] - r[121] <= 1
 mccormick3[122]: x[122] + u[122] - r[122] <= 1
 mccormick3[123]: x[123] + u[123] - r[123] <= 1
 mccormick3[124]: x[124] + u[124] - r[124] <= 1
 mccormick3[125]: x[125] + u[125] - r[125] <= 1
 mccormick3[126]: x[126] + u[126] - r[126] <= 1
 mccormick3[127]: x[127] + u[127] - r[127] <= 1
 mccormick3[128]: x[128] + u[128] - r[128] <= 1
 mccormick3[129]: x[129] + u[129] - r[129] <= 1
 mccormick3[130]: x[130] + u[130] - r[130] <= 1
 mccormick3[131]: x[131] + u[131] - r[131] <= 1
 mccormick3[132]: x[132] + u[132] - r[132] <= 1
 mccormick3[133]: x[133] + u[133] - r[133] <= 1
 mccormick3[134]: x[134] + u[134] - r[134] <= 1
 mccormick3[135]: x[135] + u[135] - r[135] <= 1
 mccormick3[136]: x[136] + u[136] - r[136] <= 1
 mccormick3[137]: x[137] + u[137] - r[137] <= 1
 mccormick3[138]: x[138] + u[138] - r[138] <= 1
 mccormick3[139]: x[139] + u[139] - r[139] <= 1
 mccormick3[140]: x[140] + u[140] - r[140] <= 1
 mccormick3[141]: x[141] + u[141] - r[141] <= 1
 mccormick3[142]: x[142] + u[142] - r[142] <= 1
 mccormick3[143]: x[143] + u[143] - r[143] <= 1
 mccormick3[144]: x[144] + u[144] - r[144] <= 1
 mccormick3[145]: x[145] + u[145] - r[145] <= 1
 mccormick3[146]: x[146] + u[146] - r[146] <= 1
 mccormick3[147]: x[147] + u[147] - r[147] <= 1
 mccormick3[148]: x[148] + u[148] - r[148] <= 1
 mccormick3[149]: x[149] + u[149] - r[149] <= 1
Bounds
Binaries
 x[0] x[1] x[2] x[3] x[4] x[5] x[6] x[7] x[8] x[9] x[10] x[11] x[12] x[13]
 x[14] x[15] x[16] x[17] x[18] x[19] x[20] x[21] x[22] x[23] x[24] x[25]
 x[26] x[27] x[28] x[29] x[30] x[31] x[32] x[33] x[34] x[35] x[36] x[37]
 x[38] x[39] x[40] x[41] x[42] x[43] x[44] x[45] x[46] x[47] x[48] x[49]
 x[50] x[51] x[52] x[53] x[54] x[55] x[56] x[57] x[58] x[59] x[60] x[61]
 x[62] x[63] x[64] x[65] x[66] x[67] x[68] x[69] x[70] x[71] x[72] x[73]
 x[74] x[75] x[76] x[77] x[78] x[79] x[80] x[81] x[82] x[83] x[84] x[85]
 x[86] x[87] x[88] x[89] x[90] x[91] x[92] x[93] x[94] x[95] x[96] x[97]
 x[98] x[99] x[100] x[101] x[102] x[103] x[104] x[105] x[106] x[107] x[108]
 x[109] x[110] x[111] x[112] x[113] x[114] x[115] x[116] x[117] x[118]
 x[119] x[120] x[121] x[122] x[123] x[124] x[125] x[126] x[127] x[128]
 x[129] x[130] x[131] x[132] x[133] x[134] x[135] x[136] x[137] x[138]
 x[139] x[140] x[141] x[142] x[143] x[144] x[145] x[146] x[147] x[148]
 x[149] u[0] u[1] u[2] u[3] u[4] u[5] u[6] u[7] u[8] u[9] u[10] u[11] u[12]
 u[13] u[14] u[15] u[16] u[17] u[18] u[19] u[20] u[21] u[22] u[23] u[24]
 u[25] u[26] u[27] u[28] u[29] u[30] u[31] u[32] u[33] u[34] u[35] u[36]
 u[37] u[38] u[39] u[40] u[41] u[42] u[43] u[44] u[45] u[46] u[47] u[48]
 u[49] u[50] u[51] u[52] u[53] u[54] u[55] u[56] u[57] u[58] u[59] u[60]
 u[61] u[62] u[63] u[64] u[65] u[66] u[67] u[68] u[69] u[70] u[71] u[72]
 u[73] u[74] u[75] u[76] u[77] u[78] u[79] u[80] u[81] u[82] u[83] u[84]
 u[85] u[86] u[87] u[88] u[89] u[90] u[91] u[92] u[93] u[94] u[95] u[96]
 u[97] u[98] u[99] u[100] u[101] u[102] u[103] u[104] u[105] u[106] u[107]
 u[108] u[109] u[110] u[111] u[112] u[113] u[114] u[115] u[116] u[117]
 u[118] u[119] u[120] u[121] u[122] u[123] u[124] u[125] u[126] u[127]
 u[128] u[129] u[130] u[131] u[132] u[133] u[134] u[135] u[136] u[137]
 u[138] u[139] u[140] u[141] u[142] u[143] u[144] u[145] u[146] u[147]
 u[148] u[149] r[0] r[1] r[2] r[3] r[4] r[5] r[6] r[7] r[8] r[9] r[10]
 r[11] r[12] r[13] r[14] r[15] r[16] r[17] r[18] r[19] r[20] r[21] r[22]
 r[23] r[24] r[25] r[26] r[27] r[28] r[29] r[30] r[31] r[32] r[33] r[34]
 r[35] r[36] r[37] r[38] r[39] r[40] r[41] r[42] r[43] r[44] r[45] r[46]
 r[47] r[48] r[49] r[50] r[51] r[52] r[53] r[54] r[55] r[56] r[57] r[58]
 r[59] r[60] r[61] r[62] r[63] r[64] r[65] r[66] r[67] r[68] r[69] r[70]
 r[71] r[72] r[73] r[74] r[75] r[76] r[77] r[78] r[79] r[80] r[81] r[82]
 r[83] r[84] r[85] r[86] r[87] r[88] r[89] r[90] r[91] r[92] r[93] r[94]
 r[95] r[96] r[97] r[98] r[99] r[100] r[101] r[102] r[103] r[104] r[105]
 r[106] r[107] r[108] r[109] r[110] r[111] r[112] r[113] r[114] r[115]
 r[116] r[117] r[118] r[119] r[120] r[121] r[122] r[123] r[124] r[125]
 r[126] r[127] r[128] r[129] r[130] r[131] r[132] r[133] r[134] r[135]
 r[136] r[137] r[138] r[139] r[140] r[141] r[142] r[143] r[144] r[145]
 r[146] r[147] r[148] r[149]
End
