instances/knapsack/discrete_knapsack_uncertainty/knapsack_150_18.kp
1155
150
729

30 3.0 55
27 2.7 55
53 5.3 57
34 3.4 89
55 5.5 26
16 1.6 62
24 2.4 38
50 5.0 76
80 8.0 83
57 5.7 79
74 7.4 80
50 5.0 48
67 6.7 52
35 3.5 91
71 7.1 92
95 9.5 17
24 2.4 39
55 5.5 47
36 3.6 51
73 7.3 66
64 6.4 10
58 5.8 64
39 3.9 49
5 0.5 1
55 5.5 62
91 9.1 43
85 8.5 33
70 7.0 16
100 10.0 95
2 0.2 61
92 9.2 10
10 1.0 41
82 8.2 41
8 0.8 52
23 2.3 4
72 7.2 6
67 6.7 74
95 9.5 36
95 9.5 35
93 9.3 96
82 8.2 33
32 3.2 38
1 0.1 54
100 10.0 36
26 2.6 55
9 0.9 52
60 6.0 57
56 5.6 89
30 3.0 41
47 4.7 22
33 3.3 52
47 4.7 63
100 10.0 12
27 2.7 62
43 4.3 61
78 7.8 75
52 5.2 51
61 6.1 73
47 4.7 5
41 4.1 32
75 7.5 29
93 9.3 75
94 9.4 66
73 7.3 38
6 0.6 47
3 0.3 86
15 1.5 14
21 2.1 82
43 4.3 21
16 1.6 82
16 1.6 58
80 8.0 76
89 8.9 94
66 6.6 6
70 7.0 91
51 5.1 23
61 6.1 75
22 2.2 42
19 1.9 61
33 3.3 8
8 0.8 68
64 6.4 79
49 4.9 26
100 10.0 3
40 4.0 22
36 3.6 77
34 3.4 59
51 5.1 76
1 0.1 21
54 5.4 63
75 7.5 27
67 6.7 94
23 2.3 70
58 5.8 49
27 2.7 65
84 8.4 3
80 8.0 58
3 0.3 13
27 2.7 85
39 3.9 37
36 3.6 45
15 1.5 70
9 0.9 79
59 5.9 34
80 8.0 32
13 1.3 36
78 7.8 23
21 2.1 33
13 1.3 79
4 0.4 37
97 9.7 14
18 1.8 99
92 9.2 98
56 5.6 100
68 6.8 7
29 2.9 58
94 9.4 40
76 7.6 46
80 8.0 3
75 7.5 36
2 0.2 42
47 4.7 7
98 9.8 71
85 8.5 36
16 1.6 4
33 3.3 61
2 0.2 77
58 5.8 47
45 4.5 4
18 1.8 77
68 6.8 31
88 8.8 16
17 1.7 89
87 8.7 79
35 3.5 98
93 9.3 72
44 4.4 85
1 0.1 58
52 5.2 40
47 4.7 74
42 4.2 27
91 9.1 13
94 9.4 90
94 9.4 40
56 5.6 77
21 2.1 43
93 9.3 82
66 6.6 92
15 1.5 33
93 9.3 67

52801
733

[4.833272839058654 1.6236319140232895 1.0033738888848802 4.115010342025372 3.5858363321781277 1.9559768144707532 0.003772058143608354 0.6790198865159293 3.8598508901485444 1.7211418550978974 3.655078181475994 0.8022666136512152 2.277804587149975 2.5737651726308557 4.437932218960214 0.012085332727707091 4.198254047595115 4.405303825565531 1.4912546972771799 1.4284197975619068 2.4851395557770184 1.3585589379887304 3.3725212790084838 2.2670243742593077 0.2729724574332149 2.149068074218947 3.6552870309214835 3.95350009160784 0.4602329790446297 2.9664552094262895 2.5423998510245442 3.2386111694217696 0.9076170776481464 2.5718093455055175 2.749567102998302 4.8520136354029395 1.8728657521130767 1.0354989357498956 1.612740308250911 2.9201885097969247 1.1521431435028957 4.553027315973142 0.5771415674722187 2.5166696526849033 3.6097199883128552 4.276175830816726 0.7328655166560536 3.7635064401774767 4.745980165573602 4.160183096576932 1.3086207004370032 4.375627384479358 3.3794579894213492 1.9942438240389055 3.311719330870444 2.8993230457520536 4.666362582879366 0.8216259885586165 2.3894099090092125 2.7252931043636237 3.5942804829838573 1.909853369318452 3.4322234035340373 3.432042221708204 2.2413354498501565 4.2434444694698366 3.970101313599092 2.420907113656441 0.6058331822529212 1.0817298998132503 3.859336033725992 3.8271645708141593 1.9838359171759536 1.7497284525404486 1.255590540000201 1.1482534685743762 2.4778940144666115 1.0611794118685882 3.3910090213178203 2.3133052994343735 0.4275031841309252 0.5680770020245679 2.4459595969817123 3.1174568152983237 4.097755726314298 1.6372904032037219 3.213243582607766 1.8329425416432428 0.8996784063633849 3.798375881724551 3.943735782494493 4.717122366317405 0.7522174105246101 3.5616391328512336 0.16287934178205982 2.318593732306923 1.8945332279276215 0.0922925826823231 4.115452678356299 4.013427559734155 2.192671214842201 3.7988029376464985 0.6311850293527871 3.9903250781326123 2.4611347956213647 3.166388515128328 2.380040312716783 4.19803114523963 0.8259054275530111 4.6413336445857745 1.4593616269046503 2.6694439435563786 3.688268968759821 1.4353527362688132 0.2930441255680589 1.2436250452343574 3.6661470484811627 1.416453731058397 3.1552339863089904 2.6611337895335154 2.5370113491213133 1.8753345581743397 2.5988476712274258 2.10479112223304 4.87355326930471 0.5137999887944819 3.782759800689512 3.932431667738092 4.048883735618348 3.518228961075491 0.8440173194288005 0.9352560124365378 0.7970291397185771 4.691393950397016 1.5776731559288193 4.798846331518744 2.2160968690274765 2.752951405198519 2.9303616558365913 1.5710457166401652 0.589159253300136 2.1301824359947834 3.357959202830947 1.1558135697511598 4.747815246312336 0.9804349015725027 3.3923925112484223 0.09542952815416417 4.168021366092781 0.9620054158968231]

[81 82 84 77 6 79 95 13 91 12 33 85 42 90 70 94 67 2 55 84 23 81 78 68 2 66 68 49 11 93 63 73 5 43 98 99 82 74 90 4 25 71 32 83 33 76 91 55 73 26 52 98 15 90 62 57 59 24 86 84 14 88 73 64 77 58 2 20 46 91 7 7 12 93 97 38 36 81 14 4 11 3 72 3 71 23 45 50 4 25 10 70 70 45 46 75 71 86 90 14 7 6 16 50 55 52 53 88 64 79 28 25 23 79 39 40 49 39 79 2 85 34 5 68 43 4 1 9 64 37 79 39 56 46 82 56 7 100 59 34 17 6 21 93 23 100 16 69 74 92]
